12 48 9 10
20 20 6 6 12 17 20 15 1 11 8 19 3 18 7 12 7 8 1 6 18 19 5 19 16 18 10 18 3 13 16 20 7 20 16 15 6 2 17 17 13 17 17 5 10 4 11 18 
15.19 11.41 9.5 13.05 1.49 2.57 11.3 2.05 11.86 9.8 10.87 11.33 5.93 5.12 2.75 13.59 14.54 12.04 3.22 11.07 6.96 4.84 14.83 2.01 2.82 1.14 2.87 13.53 2.37 13.51 10.59 6.61 13 12.38 3.53 12.4 0.55 14.42 15.09 3.81 14.46 2.25 12.09 8.27 4.04 1.84 10.73 15.21 
14.7 7.43 2.04 10.71 7.8 11.23 7.65 5.86 10.96 9.87 2.03 14.78 3.57 14.83 12.69 7.62 9.42 9.91 14.86 3.55 9.64 11.68 9.49 9.23 2.11 10.28 9.01 1.7 15.13 0.21 5.18 4.17 5.93 15.56 13.25 15.77 15.04 14.42 0.61 9.2 15.71 5.44 6.97 9.33 13.83 2.68 8.18 9.86 
4.1 1.16 12.73 0.77 10.32 14.89 7.63 10.35 5.39 1.89 11.37 1.71 5.51 6.67 10.53 15.03 10.27 15.94 8.62 7.08 9.23 13.08 8.98 8.34 1.01 4.91 8.83 14.8 13.73 5.44 14.38 13.81 8.35 3.99 2.74 14.28 2.94 5.22 13.35 2.97 9.54 1.01 8.02 3.65 13.91 13.84 8.65 10.45 
13.17 11.21 5.39 2.31 6.57 4.54 5.28 6.01 3.47 6.72 0.32 6.85 7.85 0.62 9.11 14.18 11.75 6.57 11.22 3.65 14.33 4.58 11.43 7.96 10.12 3.12 12.07 9.54 10.4 2.97 11.73 12.43 3.46 9.95 14.1 8.1 14.01 15.11 4.29 7.68 2.43 4.5 9.46 5.85 4.02 7.41 3.1 1.16 
1.02 4.57 12.96 1.14 15.57 1.92 0.88 10.28 0.18 9.81 1.83 3.02 11.33 6.86 8.28 2.63 15.91 2.98 7.51 8.68 7.67 6.05 9.78 11.28 15.13 6.47 14.71 11.68 6.21 14.88 11.35 5.06 9.51 15.97 1.92 11.35 0.27 3.24 13.56 8.34 10.11 11.28 13.92 10.74 0.13 5.6 13.36 13.4 
6.84 7.02 3.4 10.16 12.4 12.94 10.22 5.49 11.37 8.44 7.8 15.18 1.27 15.89 6.48 9.57 13.71 7.08 3.48 15.83 4.01 13.88 5.64 14.16 4.3 9.11 5.55 5.8 0.55 12.79 10.52 1.46 14.35 6.32 9.74 0.24 5.49 3.69 15.01 14.61 3.79 10.92 8.45 3.24 7.31 9.82 4.55 2.27 
12.44 15.93 0.4 9.21 13.67 8.49 1.04 9.42 7.72 3.86 14.86 13.98 2.35 10.16 9.01 3.1 5.91 3.53 9.93 9.51 0.24 2.64 5.22 5.75 7.72 6.26 5.63 11.01 3.68 3.9 4.45 6.61 4.13 11.27 12.79 10.45 14.11 0.7 8.66 14.25 1.8 10.31 6.96 12.44 4.54 9 3.77 1.05 
13.89 13.95 13.6 13.88 5.32 6.05 13.28 9.67 13.78 6.09 8.18 8.37 9.45 10.88 12.42 4.36 11.31 10.44 0.9 10.58 0.25 6.52 14.48 3.29 8.52 12.12 8.94 9.06 13.23 1.69 2.7 4.94 3.52 3.06 4.15 13.87 0.61 9.36 15.91 5.97 11.25 10.86 9.9 9.46 14.77 15.2 10.6 10.02 
12.46 12.82 6.38 5.74 8.14 7 10.77 4.11 0.05 4.59 15.54 6.43 6.47 3.75 10.33 11.87 7.56 5.97 2.19 5.06 6.28 11.91 13.43 12.06 8.96 2.31 14.72 11.36 12.94 9.88 1.43 11.41 13.77 8.73 13.86 1.42 1.59 3.86 13.86 0.6 7.6 9.58 12.11 8.66 6.47 5.18 0.45 6.39 
8 8 8 8 8 8 8 8 8 8 8 8 8 8 8 8 8 8 8 8 8 8 8 8 8 8 8 8 8 8 8 8 8 8 8 8 8 8 8 8 8 8 8 8 8 8 8 8 
1.42 4.43 12.28 3.12 7.3 11.81 8.37 4.13 10.9 0.73 4.16 5.4 2.54 2.31 1.57 2.8 0.64 3.18 9.51 6.82 11.02 13.86 1.45 15.97 13.59 10.68 2.01 10.29 3.94 12.79 5.83 11.16 1.11 7.49 0.81 4.57 2.34 11.75 6.82 15.83 9.31 6.48 8.47 11.76 0.97 11.22 14.3 5.6 
6.63 8.38 12.69 15.68 3.09 0.51 6 0.94 1.8 3.11 7.1 13.04 3.41 14.85 13.76 9.38 7.86 10.91 12.19 1.23 10.88 11.55 15.72 11.35 5.48 13.67 9.23 12.23 9.3 13.95 14.5 9.49 12.95 14.92 4.92 5.31 12.8 11.61 7.59 4.96 12.47 9.91 10.74 2.57 14.4 3.65 6.54 0.46 
1 1 1 1 1 1 1 1 1 1 1 1 1 1 1 1 1 1 1 1 1 1 1 1 1 1 1 1 1 1 1 1 1 1 1 1 1 1 1 1 1 1 1 1 1 1 1 1 
1 1 1 1 1 1 1 1 1 1 1 1 1 1 1 1 1 1 1 1 1 1 1 1 1 1 1 1 1 1 1 1 1 1 1 1 1 1 1 1 1 1 1 1 1 1 1 1 
1 1 1 1 1 1 1 1 1 1 1 1 1 1 1 1 1 1 1 1 1 1 1 1 1 1 1 1 1 1 1 1 1 1 1 1 1 1 1 1 1 1 1 1 1 1 1 1 
1 1 1 1 1 1 1 1 1 1 1 1 1 1 1 1 1 1 1 1 1 1 1 1 1 1 1 1 1 1 1 1 1 1 1 1 1 1 1 1 1 1 1 1 1 1 1 1 
1 1 1 1 1 1 1 1 1 1 1 1 1 1 1 1 1 1 1 1 1 1 1 1 1 1 1 1 1 1 1 1 1 1 1 1 1 1 1 1 1 1 1 1 1 1 1 1 
1 1 1 1 1 1 1 1 1 1 1 1 1 1 1 1 1 1 1 1 1 1 1 1 1 1 1 1 1 1 1 1 1 1 1 1 1 1 1 1 1 1 1 1 1 1 1 1 
1 1 1 1 1 1 1 1 1 1 1 1 1 1 1 1 1 1 1 1 1 1 1 1 1 1 1 1 1 1 1 1 1 1 1 1 1 1 1 1 1 1 1 1 1 1 1 1 
1 1 1 1 1 1 1 1 1 1 1 1 1 1 1 1 1 1 1 1 1 1 1 1 1 1 1 1 1 1 1 1 1 1 1 1 1 1 1 1 1 1 1 1 1 1 1 1 
1 1 1 1 1 1 1 1 1 1 1 1 1 1 1 1 1 1 1 1 1 1 1 1 1 1 1 1 1 1 1 1 1 1 1 1 1 1 1 1 1 1 1 1 1 1 1 1 
1 1 1 1 1 1 1 1 1 1 1 1 1 1 1 1 1 1 1 1 1 1 1 1 1 1 1 1 1 1 1 1 1 1 1 1 1 1 1 1 1 1 1 1 1 1 1 1 
1 1 1 1 1 1 1 1 1 1 1 1 1 1 1 1 1 1 1 1 1 1 1 1 1 1 1 1 1 1 1 1 1 1 1 1 1 1 1 1 1 1 1 1 1 1 1 1 
1 1 1 1 1 1 1 1 1 1 1 1 1 1 1 1 1 1 1 1 1 1 1 1 1 1 1 1 1 1 1 1 1 1 1 1 1 1 1 1 1 1 1 1 1 1 1 1 
0.01 0.01 0.01 0.01 0.01 0.01 0.01 0.01 0.01 0.01 0.01 0.01 0.01 0.01 0.01 0.01 0.01 0.01 0.01 0.01 0.01 0.01 0.01 0.01 0.01 0.01 0.01 0.01 0.01 0.01 0.01 0.01 0.01 0.01 0.01 0.01 0.01 0.01 0.01 0.01 0.01 0.01 0.01 0.01 0.01 0.01 0.01 0.01 
0.02 0.02 0.02 0.02 0.02 0.02 0.02 0.02 0.02 0.02 0.02 0.02 0.02 0.02 0.02 0.02 0.02 0.02 0.02 0.02 0.02 0.02 0.02 0.02 0.02 0.02 0.02 0.02 0.02 0.02 0.02 0.02 0.02 0.02 0.02 0.02 0.02 0.02 0.02 0.02 0.02 0.02 0.02 0.02 0.02 0.02 0.02 0.02 
0.03 0.03 0.03 0.03 0.03 0.03 0.03 0.03 0.03 0.03 0.03 0.03 0.03 0.03 0.03 0.03 0.03 0.03 0.03 0.03 0.03 0.03 0.03 0.03 0.03 0.03 0.03 0.03 0.03 0.03 0.03 0.03 0.03 0.03 0.03 0.03 0.03 0.03 0.03 0.03 0.03 0.03 0.03 0.03 0.03 0.03 0.03 0.03 
0.04 0.04 0.04 0.04 0.04 0.04 0.04 0.04 0.04 0.04 0.04 0.04 0.04 0.04 0.04 0.04 0.04 0.04 0.04 0.04 0.04 0.04 0.04 0.04 0.04 0.04 0.04 0.04 0.04 0.04 0.04 0.04 0.04 0.04 0.04 0.04 0.04 0.04 0.04 0.04 0.04 0.04 0.04 0.04 0.04 0.04 0.04 0.04 
0.05 0.05 0.05 0.05 0.05 0.05 0.05 0.05 0.05 0.05 0.05 0.05 0.05 0.05 0.05 0.05 0.05 0.05 0.05 0.05 0.05 0.05 0.05 0.05 0.05 0.05 0.05 0.05 0.05 0.05 0.05 0.05 0.05 0.05 0.05 0.05 0.05 0.05 0.05 0.05 0.05 0.05 0.05 0.05 0.05 0.05 0.05 0.05 
0.06 0.06 0.06 0.06 0.06 0.06 0.06 0.06 0.06 0.06 0.06 0.06 0.06 0.06 0.06 0.06 0.06 0.06 0.06 0.06 0.06 0.06 0.06 0.06 0.06 0.06 0.06 0.06 0.06 0.06 0.06 0.06 0.06 0.06 0.06 0.06 0.06 0.06 0.06 0.06 0.06 0.06 0.06 0.06 0.06 0.06 0.06 0.06 
0.07 0.07 0.07 0.07 0.07 0.07 0.07 0.07 0.07 0.07 0.07 0.07 0.07 0.07 0.07 0.07 0.07 0.07 0.07 0.07 0.07 0.07 0.07 0.07 0.07 0.07 0.07 0.07 0.07 0.07 0.07 0.07 0.07 0.07 0.07 0.07 0.07 0.07 0.07 0.07 0.07 0.07 0.07 0.07 0.07 0.07 0.07 0.07 
0.08 0.08 0.08 0.08 0.08 0.08 0.08 0.08 0.08 0.08 0.08 0.08 0.08 0.08 0.08 0.08 0.08 0.08 0.08 0.08 0.08 0.08 0.08 0.08 0.08 0.08 0.08 0.08 0.08 0.08 0.08 0.08 0.08 0.08 0.08 0.08 0.08 0.08 0.08 0.08 0.08 0.08 0.08 0.08 0.08 0.08 0.08 0.08 
0.09 0.09 0.09 0.09 0.09 0.09 0.09 0.09 0.09 0.09 0.09 0.09 0.09 0.09 0.09 0.09 0.09 0.09 0.09 0.09 0.09 0.09 0.09 0.09 0.09 0.09 0.09 0.09 0.09 0.09 0.09 0.09 0.09 0.09 0.09 0.09 0.09 0.09 0.09 0.09 0.09 0.09 0.09 0.09 0.09 0.09 0.09 0.09 
0.1 0.1 0.1 0.1 0.1 0.1 0.1 0.1 0.1 0.1 0.1 0.1 0.1 0.1 0.1 0.1 0.1 0.1 0.1 0.1 0.1 0.1 0.1 0.1 0.1 0.1 0.1 0.1 0.1 0.1 0.1 0.1 0.1 0.1 0.1 0.1 0.1 0.1 0.1 0.1 0.1 0.1 0.1 0.1 0.1 0.1 0.1 0.1 
0.5 0.5 0.5 0.5 0.5 0.5 0.5 0.5 0.5 0.5 0.5 0.5 0.5 0.5 0.5 0.5 0.5 0.5 0.5 0.5 0.5 0.5 0.5 0.5 0.5 0.5 0.5 0.5 0.5 0.5 0.5 0.5 0.5 0.5 0.5 0.5 0.5 0.5 0.5 0.5 0.5 0.5 0.5 0.5 0.5 0.5 0.5 0.5 
1 1 1 1 1 1 1 1 1 1 1 1 1 1 1 1 1 1 1 1 1 1 1 1 1 1 1 1 1 1 1 1 1 1 1 1 1 1 1 1 1 1 1 1 1 1 1 1 
